nxmxp! comment line
 0
Monkhorst
 2 2 2
0 0 0
