nxmxp! comment line
 0
Monkhorst
 12 12 12
0 0 0
